c preprocessed version of games120, 104 vertices, 570 edges
p td 104 570
0 1
0 41
0 88
0 78
0 40
0 77
0 39
0 89
0 33
0 46
86 0
2 1
6 1
33 1
60 1
46 1
47 1
48 1
90 1
1 61
1 92
1 91
1 73
2 3
2 92
2 59
2 90
2 61
2 48
2 25
2 47
2 91
2 54
4 3
8 3
7 3
3 94
3 14
3 58
3 65
3 9
3 93
3 91
4 5
4 17
4 20
4 19
4 73
4 46
86 4
6 5
46 5
5 54
5 70
5 74
5 73
5 34
86 5
85 5
7 6
6 39
6 89
6 41
6 88
6 40
6 78
6 77
6 55
8 7
7 14
7 93
7 33
7 34
7 9
7 94
7 58
85 7
8 9
8 93
8 94
8 65
8 58
8 17
8 26
8 14
10 9
59 9
94 9
9 54
9 65
9 93
9 61
9 14
10 11
10 24
10 66
10 25
10 26
10 16
10 15
10 76
12 11
60 11
15 11
26 11
25 11
11 66
11 24
11 16
13 12
12 48
12 53
12 52
12 57
12 56
12 84
12 83
12 55
13 14
13 53
13 52
13 57
13 56
13 83
13 84
13 55
13 37
13 68
13 94
15 14
59 14
94 14
93 14
54 14
58 14
14 65
14 91
15 16
15 24
15 26
15 25
15 66
15 59
15 49
15 93
17 16
26 16
25 16
94 16
16 66
16 24
18 17
23 17
32 17
33 17
38 17
17 45
17 44
17 69
17 36
17 79
18 19
18 29
18 43
18 30
18 82
18 81
18 42
18 34
18 76
18 50
20 19
29 19
30 19
75 19
72 19
19 81
19 80
19 74
21 20
20 67
20 71
20 75
20 80
20 87
20 68
20 72
20 28
22 21
21 69
21 72
21 70
21 74
21 89
23 22
22 38
22 37
22 46
22 80
22 71
22 72
22 56
22 83
22 68
23 24
23 38
23 37
23 71
23 69
23 79
23 44
23 36
23 80
25 24
26 24
35 24
94 24
66 24
79 24
26 25
90 25
25 66
25 92
25 70
26 27
26 66
26 64
26 65
28 27
58 27
57 27
51 27
62 27
70 27
71 27
27 68
28 29
28 58
28 35
28 79
28 68
29 30
29 73
29 43
29 42
29 82
29 39
29 81
29 76
29 74
31 30
43 30
30 87
30 82
30 42
30 76
30 75
30 81
31 32
50 31
31 49
31 62
31 63
31 51
31 64
31 60
31 88
31 67
31 84
32 33
50 32
32 64
32 51
32 62
32 63
32 49
32 90
32 53
32 77
32 92
33 34
33 73
33 54
33 92
33 40
33 39
35 34
85 34
35 36
35 67
86 35
37 36
51 36
69 36
36 79
44 36
36 72
36 87
37 38
37 69
37 72
37 44
37 45
37 87
38 39
38 45
38 87
38 44
38 57
38 79
38 71
40 39
78 39
77 39
88 39
89 39
61 39
40 41
40 78
40 89
40 77
40 88
40 90
41 42
77 41
41 89
41 88
41 78
41 67
41 83
43 42
82 42
75 42
42 81
42 76
85 42
43 44
43 76
43 82
43 81
43 75
44 45
44 87
44 78
86 44
46 45
56 45
69 45
45 79
82 45
45 87
85 45
46 47
46 54
46 74
46 73
86 46
85 46
47 48
60 47
47 59
47 92
47 90
47 91
47 61
47 65
47 77
48 49
48 58
60 48
48 91
48 59
48 90
48 84
50 49
63 49
51 49
78 49
62 49
64 49
52 49
50 51
50 64
50 54
50 63
50 62
50 70
50 60
51 52
63 51
51 64
51 62
53 52
56 52
57 52
55 52
84 52
83 52
52 91
53 54
56 53
53 84
53 55
53 57
53 62
53 83
53 73
55 54
72 54
54 89
56 55
55 57
55 83
55 84
55 65
56 57
56 83
56 84
57 58
84 57
57 83
59 58
94 58
93 58
58 65
60 59
59 61
59 92
59 90
60 61
60 91
60 92
62 61
90 61
61 91
92 61
63 62
62 64
63 64
63 89
63 88
64 65
64 67
66 65
93 65
94 65
66 67
66 93
67 68
69 68
80 68
71 68
69 70
69 79
69 73
69 87
69 80
70 71
70 80
70 74
71 72
71 80
73 72
72 79
75 72
73 74
86 73
75 74
86 74
75 76
75 81
77 76
82 76
81 76
76 87
77 78
77 89
78 79
88 78
80 79
87 79
81 80
80 87
82 81
82 83
85 82
84 83
86 85
88 89
88 93
90 89
90 91
90 92
92 91
94 93
95 96
95 97
95 98
95 99
95 100
95 101
95 102
95 0
95 6
95 78
95 88
95 77
95 41
95 89
95 39
95 4
95 2
96 21
96 25
96 101
96 99
96 97
96 102
96 98
96 100
96 35
96 44
97 98
97 100
97 99
97 35
97 63
97 102
97 28
97 101
98 21
98 37
98 102
98 101
98 100
98 99
98 43
99 100
99 34
99 102
99 101
99 67
100 103
100 19
100 21
100 102
100 101
101 103
101 78
101 102
101 66
102 103
102 21
102 74
102 35
103 95
103 96
103 97
103 98
103 99
103 4
103 5
103 33
103 46
103 54
103 62
103 70
103 73
103 74
103 86
